100 4 100
62 39 29 90 37 14 74 66 40 66 61 56 71 1 60 55 61 60 3 49 19 45 51 19 66 46 2 13 11 65 75 73 4 4 16 42 18 42 60 58 9 22 66 80 23 78 88 37 39 43 86 58 40 38 77 6 36 32 72 48 49 47 73 53 51 89 47 21 84 8 79 93 82 97 73 57 75 13 94 14 57 81 24 97 19 54 56 7 38 28 55 87 27 29 92 30 70 40 51 54 
